SECTION Graph 
Nodes 126
Edges 131
A 1 2 1 1000000 
A 1 3 1 1000000 
A 2 4 1 1000000 
A 2 5 1 1000000 
A 2 3 1 1000000 
A 2 6 1 1000000 
A 2 7 1 1000000 
A 3 8 1 1000000 
A 3 9 1 1000000 
A 3 10 1 1000000 
A 3 11 1 1000000 
A 3 12 1 1000000 
A 3 13 1 1000000 
A 3 14 1 1000000 
A 3 15 1 1000000 
A 3 16 1 1000000 
A 3 17 1 1000000 
A 3 18 1 1000000 
A 3 19 1 1000000 
A 3 20 1 1000000 
A 3 21 1 1000000 
A 3 22 1 1000000 
A 3 23 1 1000000 
A 3 24 1 1000000 
A 3 25 1 1000000 
A 3 26 1 1000000 
A 3 27 1 1000000 
A 3 28 1 1000000 
A 3 29 1 1000000 
A 3 30 1 1000000 
A 3 31 1 1000000 
A 3 32 1 1000000 
A 3 33 1 1000000 
A 3 34 1 1000000 
A 3 35 1 1000000 
A 3 36 1 1000000 
A 3 37 1 1000000 
A 3 38 1 1000000 
A 3 39 1 1000000 
A 3 40 1 1000000 
A 3 41 1 1000000 
A 3 42 1 1000000 
A 3 43 1 1000000 
A 3 44 1 1000000 
A 4 1 1 1000000 
A 5 46 1 1000000 
A 5 47 1 1000000 
A 5 48 1 1000000 
A 5 49 1 1000000 
A 5 50 1 1000000 
A 5 51 1 1000000 
A 5 52 1 1000000 
A 5 53 1 1000000 
A 5 54 1 1000000 
A 5 55 1 1000000 
A 5 56 1 1000000 
A 5 57 1 1000000 
A 5 58 1 1000000 
A 5 59 1 1000000 
A 5 60 1 1000000 
A 5 61 1 1000000 
A 5 62 1 1000000 
A 5 63 1 1000000 
A 5 64 1 1000000 
A 5 65 1 1000000 
A 5 66 1 1000000 
A 5 67 1 1000000 
A 5 68 1 1000000 
A 5 69 1 1000000 
A 5 70 1 1000000 
A 5 71 1 1000000 
A 5 72 1 1000000 
A 5 73 1 1000000 
A 5 74 1 1000000 
A 5 75 1 1000000 
A 5 76 1 1000000 
A 5 77 1 1000000 
A 5 78 1 1000000 
A 5 79 1 1000000 
A 5 80 1 1000000 
A 5 81 1 1000000 
A 5 82 1 1000000 
A 5 83 1 1000000 
A 5 84 1 1000000 
A 6 85 1 1000000 
A 7 117 1 1000000 
A 7 118 1 1000000 
A 7 119 1 1000000 
A 7 120 1 1000000 
A 7 121 1 1000000 
A 7 122 1 1000000 
A 7 123 1 1000000 
A 7 124 1 1000000 
A 7 125 1 1000000 
A 8 45 1 1000000 
A 9 88 1 1000000 
A 10 86 1 1000000 
A 11 87 1 1000000 
A 12 95 1 1000000 
A 13 90 1 1000000 
A 14 94 1 1000000 
A 15 91 1 1000000 
A 16 89 1 1000000 
A 17 101 1 1000000 
A 18 98 1 1000000 
A 19 100 1 1000000 
A 20 87 1 1000000 
A 21 96 1 1000000 
A 22 97 1 1000000 
A 23 102 1 1000000 
A 24 99 1 1000000 
A 25 114 1 1000000 
A 26 103 1 1000000 
A 27 87 1 1000000 
A 28 110 1 1000000 
A 29 98 1 1000000 
A 30 104 1 1000000 
A 31 106 1 1000000 
A 32 108 1 1000000 
A 33 105 1 1000000 
A 34 109 1 1000000 
A 35 107 1 1000000 
A 36 87 1 1000000 
A 37 111 1 1000000 
A 38 112 1 1000000 
A 39 113 1 1000000 
A 40 116 1 1000000 
A 41 115 1 1000000 
A 42 93 1 1000000 
A 43 92 1 1000000 
A 44 126 1 1000000 
END 
 
SECTION Terminals 
Terminals 6 
Root 1
T 11
T 18
T 20
T 27
T 29
T 36
END

EOF